c instance by G2
c solution = 000110011011110010110
c Known solution cost is 1057 
p cnf 21 30
w 51 92 61 32 52 50 57 8 59 89 28 43 33 72 53 78 23 31 36 49 60
-12 -3 6 0
-6 -11 -12 0
12 2 10 0
1 9 5 0
-21 -19 10 0
-8 5 -17 0
13 -20 -17 0
-19 -7 16 0
-15 -17 5 0
5 -19 -13 0
18 2 -15 0
4 -1 -19 0
18 -10 -19 0
-5 3 11 0
14 -5 -8 0
18 -1 15 0
-8 -9 -1 0
-13 -20 19 0
7 16 8 0
-9 7 17 0
-4 -2 15 0
11 18 -14 0
-18 -11 10 0
21 20 6 0
-21 -20 2 0
-20 18 -16 0
3 4 -13 0
6 21 8 0
-8 9 -17 0
8 -20 -11 0
